CST07
Position Depot: Random
Horizon for Depot: Small
Position of customers: Cluster
Distribution of the demand: Small
Width of time windows: Tight
Distribution of the service: Small

VEHICLE 
NUMBER 	 CAPACITY 
 5 	 	 152 
 
CUSTOMER
CUST NO. 	 XCOORD.  	 YCOORD. 	 DEMAND 	 READY TIME 	 DUE DATE 	 SERVICE TIME 
 0 	 	 677 	 	 24 	 	 0 	 	 0 	 	 1777 	 	 0 
  1 	 	 528 	 	 176 	 	 5 	 	 167 	 	 234 	 	 84 
  2 	 	 62 	 	 28 	 	 7 	 	 891 	 	 980 	 	 90 
  3 	 	 50 	 	 323 	 	 5 	 	 1533 	 	 1704 	 	 70 
  4 	 	 3 	 	 331 	 	 10 	 	 918 	 	 980 	 	 68 
  5 	 	 544 	 	 187 	 	 10 	 	 1042 	 	 1164 	 	 66 
  6 	 	 484 	 	 81 	 	 9 	 	 1490 	 	 1620 	 	 64 
  7 	 	 385 	 	 217 	 	 7 	 	 316 	 	 385 	 	 85 
  8 	 	 104 	 	 227 	 	 8 	 	 1315 	 	 1442 	 	 75 
  9 	 	 549 	 	 197 	 	 6 	 	 786 	 	 876 	 	 54 
  10 	 	 47 	 	 283 	 	 8 	 	 1135 	 	 1289 	 	 70 
  11 	 	 29 	 	 47 	 	 6 	 	 1105 	 	 1216 	 	 50 
  12 	 	 81 	 	 28 	 	 7 	 	 1258 	 	 1367 	 	 90 
  13 	 	 558 	 	 252 	 	 7 	 	 858 	 	 1045 	 	 89 
  14 	 	 425 	 	 224 	 	 7 	 	 660 	 	 837 	 	 70 
  15 	 	 615 	 	 183 	 	 6 	 	 869 	 	 1029 	 	 74 
  16 	 	 160 	 	 301 	 	 9 	 	 978 	 	 1141 	 	 83 
  17 	 	 156 	 	 19 	 	 9 	 	 1049 	 	 1163 	 	 57 
  18 	 	 589 	 	 153 	 	 5 	 	 855 	 	 930 	 	 87 
  19 	 	 528 	 	 180 	 	 6 	 	 221 	 	 417 	 	 77 
  20 	 	 92 	 	 261 	 	 5 	 	 913 	 	 1108 	 	 52 
  21 	 	 537 	 	 171 	 	 5 	 	 414 	 	 613 	 	 53 
  22 	 	 84 	 	 18 	 	 9 	 	 592 	 	 702 	 	 60 
  23 	 	 528 	 	 247 	 	 10 	 	 355 	 	 541 	 	 66 
  24 	 	 39 	 	 322 	 	 6 	 	 1371 	 	 1454 	 	 58 
  25 	 	 570 	 	 77 	 	 7 	 	 1385 	 	 1496 	 	 59 
  26 	 	 70 	 	 55 	 	 7 	 	 1347 	 	 1427 	 	 65 
  27 	 	 139 	 	 264 	 	 10 	 	 1072 	 	 1165 	 	 52 
  28 	 	 470 	 	 125 	 	 7 	 	 1659 	 	 1777 	 	 66 
  29 	 	 591 	 	 220 	 	 7 	 	 1072 	 	 1175 	 	 68 
  30 	 	 132 	 	 302 	 	 8 	 	 900 	 	 966 	 	 53 
  31 	 	 556 	 	 150 	 	 5 	 	 1586 	 	 1756 	 	 54 
  32 	 	 401 	 	 282 	 	 5 	 	 915 	 	 1071 	 	 95 
  33 	 	 601 	 	 133 	 	 7 	 	 50 	 	 146 	 	 51 
  34 	 	 537 	 	 174 	 	 8 	 	 1129 	 	 1293 	 	 58 
  35 	 	 170 	 	 72 	 	 8 	 	 688 	 	 745 	 	 100 
  36 	 	 538 	 	 216 	 	 10 	 	 1134 	 	 1299 	 	 50 
  37 	 	 37 	 	 379 	 	 5 	 	 896 	 	 1007 	 	 97 
  38 	 	 534 	 	 116 	 	 9 	 	 841 	 	 931 	 	 82 
  39 	 	 562 	 	 198 	 	 9 	 	 414 	 	 592 	 	 50 
  40 	 	 583 	 	 248 	 	 8 	 	 181 	 	 267 	 	 97 
  41 	 	 48 	 	 7 	 	 5 	 	 1061 	 	 1205 	 	 80 
  42 	 	 102 	 	 72 	 	 10 	 	 1053 	 	 1191 	 	 96 
  43 	 	 83 	 	 13 	 	 9 	 	 456 	 	 653 	 	 86 
  44 	 	 77 	 	 94 	 	 10 	 	 485 	 	 664 	 	 87 
  45 	 	 514 	 	 248 	 	 7 	 	 386 	 	 493 	 	 81 
  46 	 	 92 	 	 105 	 	 9 	 	 1580 	 	 1777 	 	 56 
  47 	 	 613 	 	 141 	 	 8 	 	 57 	 	 189 	 	 64 
  48 	 	 574 	 	 184 	 	 5 	 	 493 	 	 628 	 	 66 
  49 	 	 58 	 	 84 	 	 10 	 	 601 	 	 684 	 	 66 
  50 	 	 93 	 	 79 	 	 5 	 	 946 	 	 1110 	 	 100 
  51 	 	 470 	 	 116 	 	 10 	 	 951 	 	 1012 	 	 88 
  52 	 	 66 	 	 61 	 	 7 	 	 1315 	 	 1392 	 	 79 
  53 	 	 476 	 	 195 	 	 5 	 	 1449 	 	 1612 	 	 50 
  54 	 	 492 	 	 185 	 	 5 	 	 1357 	 	 1532 	 	 80 
  55 	 	 473 	 	 90 	 	 9 	 	 90 	 	 238 	 	 75 
  56 	 	 203 	 	 75 	 	 7 	 	 1511 	 	 1684 	 	 73 
  57 	 	 206 	 	 366 	 	 7 	 	 1441 	 	 1587 	 	 64 
  58 	 	 260 	 	 471 	 	 6 	 	 1722 	 	 1777 	 	 69 
  59 	 	 64 	 	 26 	 	 10 	 	 1184 	 	 1327 	 	 99 
  60 	 	 119 	 	 365 	 	 6 	 	 590 	 	 719 	 	 82 
  61 	 	 63 	 	 97 	 	 9 	 	 1525 	 	 1720 	 	 54 
  62 	 	 81 	 	 76 	 	 6 	 	 633 	 	 829 	 	 65 
  63 	 	 499 	 	 224 	 	 9 	 	 210 	 	 383 	 	 95 
  64 	 	 533 	 	 83 	 	 7 	 	 61 	 	 260 	 	 85 
  65 	 	 570 	 	 211 	 	 6 	 	 1294 	 	 1471 	 	 81 
  66 	 	 51 	 	 35 	 	 8 	 	 590 	 	 688 	 	 54 
  67 	 	 3 	 	 129 	 	 10 	 	 1689 	 	 1772 	 	 76 
  68 	 	 515 	 	 151 	 	 7 	 	 109 	 	 226 	 	 56 
  69 	 	 54 	 	 298 	 	 9 	 	 1521 	 	 1717 	 	 94 
  70 	 	 633 	 	 266 	 	 10 	 	 1688 	 	 1777 	 	 67 
  71 	 	 83 	 	 43 	 	 9 	 	 549 	 	 653 	 	 60 
  72 	 	 397 	 	 231 	 	 7 	 	 1397 	 	 1467 	 	 55 
  73 	 	 43 	 	 304 	 	 9 	 	 698 	 	 762 	 	 82 
  74 	 	 52 	 	 431 	 	 8 	 	 765 	 	 820 	 	 85 
  75 	 	 508 	 	 172 	 	 8 	 	 969 	 	 1050 	 	 65 
  76 	 	 552 	 	 167 	 	 6 	 	 1564 	 	 1620 	 	 76 
  77 	 	 61 	 	 325 	 	 9 	 	 1275 	 	 1332 	 	 78 
  78 	 	 42 	 	 311 	 	 7 	 	 598 	 	 766 	 	 73 
  79 	 	 86 	 	 34 	 	 8 	 	 1501 	 	 1646 	 	 55 
  80 	 	 209 	 	 313 	 	 9 	 	 1483 	 	 1560 	 	 83 
  81 	 	 494 	 	 184 	 	 7 	 	 949 	 	 1004 	 	 62 
  82 	 	 537 	 	 208 	 	 8 	 	 1404 	 	 1488 	 	 59 
  83 	 	 36 	 	 286 	 	 7 	 	 1173 	 	 1227 	 	 59 
  84 	 	 24 	 	 366 	 	 9 	 	 1540 	 	 1606 	 	 89 
  85 	 	 531 	 	 210 	 	 8 	 	 420 	 	 579 	 	 89 
  86 	 	 94 	 	 134 	 	 10 	 	 496 	 	 652 	 	 59 
  87 	 	 78 	 	 346 	 	 7 	 	 1351 	 	 1527 	 	 83 
  88 	 	 487 	 	 150 	 	 5 	 	 73 	 	 250 	 	 74 
  89 	 	 139 	 	 22 	 	 6 	 	 500 	 	 598 	 	 64 
  90 	 	 29 	 	 421 	 	 9 	 	 645 	 	 835 	 	 65 
  91 	 	 66 	 	 19 	 	 9 	 	 542 	 	 672 	 	 68 
  92 	 	 538 	 	 177 	 	 8 	 	 1579 	 	 1637 	 	 87 
  93 	 	 415 	 	 121 	 	 8 	 	 193 	 	 307 	 	 73 
  94 	 	 114 	 	 289 	 	 10 	 	 1006 	 	 1062 	 	 62 
  95 	 	 149 	 	 217 	 	 6 	 	 769 	 	 922 	 	 50 
  96 	 	 530 	 	 224 	 	 8 	 	 1492 	 	 1668 	 	 83 
  97 	 	 36 	 	 436 	 	 7 	 	 640 	 	 838 	 	 60 
  98 	 	 544 	 	 182 	 	 10 	 	 523 	 	 599 	 	 57 
  99 	 	 19 	 	 246 	 	 6 	 	 1268 	 	 1344 	 	 51 
  100 	 	 94 	 	 270 	 	 5 	 	 569 	 	 696 	 	 71 
 